Geometry = GenFormat {
20  C
C    H
1      1     50.223598480224609     50.356899261474609     51.918399810791016
2      2     51.315799713134766     50.392398834228516     51.908199310302734
3      2     49.878501892089844     51.390098571777344     51.929298400878906
4      1     49.744400024414062     49.654899597167969     50.640098571777344
5      2     50.085601806640625     48.629901885986328     50.653099060058594
6      2     48.656299591064453     49.604598999023438     50.616100311279297
7      1     50.234001159667969     50.357498168945312     49.368198394775391
8      2     51.332099914550781     50.409801483154297     49.397499084472656
9      2     49.883800506591797     51.390998840332031     49.359100341796875
10     1     49.772899627685547     49.650398254394531     53.188301086425781
11     2     48.692401885986328     49.664798736572266     53.275199890136719
12     2     50.125999450683594     48.619098663330078     53.218700408935547
13     2     50.145599365234375     50.171699523925781     54.064800262451172
14     1     49.779098510742188     49.672199249267578     48.087600708007812
15     2     50.102001190185547     48.622600555419922     48.101001739501953
16     2     48.677200317382812     49.659698486328125     48.034599304199219
17     1     50.324298858642578     50.353298187255859     46.840599060058594
18     2     50.007198333740234     51.388900756835938     46.767398834228516
19     2     51.405601501464844     50.333801269531250     46.842498779296875
20     2     49.976600646972656     49.849399566650391     45.943698883056641
}
Hamiltonian = DFTB {
  MaxAngularMomentum = {
    C = "p"
    H = "s"
  }
  MaxSCCIterations = 1000
  SCC = Yes
  SlaterKosterFiles = Type2FileNames {
    Prefix = ./
    Separator = "-"
    Suffix = ".skf"
    LowerCaseTypeName = No
  }
  PolynomialRepulsive = {}
  ShellResolvedSCC = No
  OldSKInterpolation = No
  RangeSeparated = None {}
  ReadInitialCharges = No
  InitialCharges = {}
  SCCTolerance = 1.000000000000000E-005
  Mixer = Broyden {
    MixingParameter = 0.200000000000000
    InverseJacobiWeight = 1.000000000000000E-002
    MinimalWeight = 1.00000000000000
    MaximalWeight = 100000.000000000
    WeightFactor = 1.000000000000000E-002
  }
  HCorrection = None {}
  SpinPolarisation = {}
  ElectricField = {}
  Filling = Fermi {
    Temperature = 0.00000000000000
  }
  Solver = RelativelyRobust {}
  Charge = 0.00000000000000
  OnSiteCorrection = {}
  Dispersion = {}
  Solvation = {}
  ThirdOrder = No
  ThirdOrderFull = No
  Differentiation = FiniteDiff {
    Delta = 1.220703125000000E-004
  }
  ForceEvaluation = "Traditional"
}
Options = {
  WriteResultsTag = Yes
  WriteDetailedOut = Yes
  WriteAutotestTag = No
  WriteDetailedXML = No
  RestartFrequency = 20
  RandomSeed = 0
  WriteHS = No
  WriteRealHS = No
  MinimiseMemoryUsage = No
  ShowFoldedCoords = No
  TimingVerbosity = 1
  WriteChargesAsText = No
}
ParserOptions = {
  IgnoreUnprocessedNodes = Yes
  ParserVersion = 8
  WriteHSDInput = Yes
  WriteXMLInput = No
  StopAfterParsing = No
}
Analysis = {
  CalculateForces = Yes
  ProjectStates = {}
  WriteEigenvectors = No
  WriteBandOut = Yes
  MullikenAnalysis = Yes
  AtomResolvedEnergies = No
}
Driver = {}
ExcitedState = {}
Reks = {}
